% Logging successfully configured
%%%mzn-stat: initTime=0.006715802
%%%mzn-stat: objective=449
%%%mzn-stat: nodes=8278
%%%mzn-stat: restarts=0
%%%mzn-stat: peakDepth=428
%%%mzn-stat: solveTime=0.478843069
%%%mzn-stat: variables=848
%%%mzn-stat: propagators=596
%%%mzn-stat: failures=3626
%%%mzn-stat: propagations=84444
%%%mzn-stat: nogoods=3626
%%%mzn-stat: numAtomicConstraintsPropagated=0
%%%mzn-stat: allDifferentNumber1TotalHallSetSize=43950
%%%mzn-stat: allDifferentNumber1NumberOfConflicts=3046
%%%mzn-stat: allDifferentNumber1MaxHallSetSize=49
%%%mzn-stat: allDifferentNumber1PropagationsTotal=15124
%%%mzn-stat: allDifferentNumber1PropagationsThatFoundConflict=3046
%%%mzn-stat: circuitNumber2PropagationsThatFoundConflict=23
%%%mzn-stat: circuitNumber2TotalFixedEdgesAtConflict=1027
%%%mzn-stat: circuitNumber2NumberOfConflicts=23
%%%mzn-stat: circuitNumber2PropagationsThatPruned=115
%%%mzn-stat: circuitNumber2PropagationsTotal=7939
%%%mzn-stat: AverageConflictSize=12.33177054605626
%%%mzn-stat: NumUnitNogoodsLearned=0
%%%mzn-stat: AverageLearnedNogoodLength=20.031163816878102
%%%mzn-stat: AverageBacktrackAmount=0
%%%mzn-stat: AverageLbd=15.287093215664644
%%%mzn-stat: 2AutonomousSearchNumBackupCalled=389
%%%mzn-stat: 2AutonomousSearchNumPredicatesRemoved=0
%%%mzn-stat: 2AutonomousSearchNumCalls=390
%%%mzn-stat: 2AutonomousSearchNumPredicatesAdded=1371
%%%mzn-stat: 2AutonomousSearchAverageSizeOfHeap=3.5153846153846153
%%%mzn-stat: 2AutonomousSearchNumAssignedPredicatesEncountered=1371
%%%mzn-stat-end
maxleg = 449;
succ = array1d(1..50,[2, 5, 15, 19, 7, 8, 13, 33, 10, 12, 22, 11, 18, 1, 6, 17, 30, 20, 14, 28, 24, 23, 25, 40, 31, 4, 16, 9, 34, 46, 32, 21, 36, 43, 49, 45, 27, 3, 41, 42, 35, 48, 26, 37, 47, 39, 44, 38, 50, 29]);
% time elapsed: 1.04 s
----------
%%%mzn-stat: initTime=0.006715802
%%%mzn-stat: objective=383
%%%mzn-stat: nodes=9078
%%%mzn-stat: restarts=0
%%%mzn-stat: peakDepth=428
%%%mzn-stat: solveTime=0.498706873
%%%mzn-stat: variables=848
%%%mzn-stat: propagators=596
%%%mzn-stat: failures=3732
%%%mzn-stat: propagations=89547
%%%mzn-stat: nogoods=3732
%%%mzn-stat: numAtomicConstraintsPropagated=0
%%%mzn-stat: allDifferentNumber1TotalHallSetSize=44820
%%%mzn-stat: allDifferentNumber1NumberOfConflicts=3126
%%%mzn-stat: allDifferentNumber1MaxHallSetSize=49
%%%mzn-stat: allDifferentNumber1PropagationsTotal=15815
%%%mzn-stat: allDifferentNumber1PropagationsThatFoundConflict=3126
%%%mzn-stat: circuitNumber2PropagationsThatFoundConflict=47
%%%mzn-stat: circuitNumber2TotalFixedEdgesAtConflict=2096
%%%mzn-stat: circuitNumber2NumberOfConflicts=47
%%%mzn-stat: circuitNumber2PropagationsThatPruned=127
%%%mzn-stat: circuitNumber2PropagationsTotal=8365
%%%mzn-stat: AverageConflictSize=12.460075026795284
%%%mzn-stat: NumUnitNogoodsLearned=0
%%%mzn-stat: AverageLearnedNogoodLength=20.0042872454448
%%%mzn-stat: AverageBacktrackAmount=0
%%%mzn-stat: AverageLbd=15.32717041800643
%%%mzn-stat: 2AutonomousSearchNumBackupCalled=758
%%%mzn-stat: 2AutonomousSearchNumPredicatesRemoved=0
%%%mzn-stat: 2AutonomousSearchNumCalls=760
%%%mzn-stat: 2AutonomousSearchNumPredicatesAdded=2103
%%%mzn-stat: 2AutonomousSearchAverageSizeOfHeap=3.723684210526316
%%%mzn-stat: 2AutonomousSearchNumAssignedPredicatesEncountered=2830
%%%mzn-stat-end
maxleg = 383;
succ = array1d(1..50,[2, 5, 15, 19, 7, 8, 13, 33, 10, 12, 22, 11, 18, 1, 6, 17, 30, 20, 14, 28, 24, 23, 25, 40, 31, 4, 44, 41, 34, 46, 32, 21, 26, 43, 27, 9, 16, 3, 47, 42, 35, 48, 36, 37, 49, 39, 45, 38, 50, 29]);
% time elapsed: 1.06 s
----------
%%%mzn-stat: initTime=0.006715802
%%%mzn-stat: objective=373
%%%mzn-stat: nodes=10683
%%%mzn-stat: restarts=0
%%%mzn-stat: peakDepth=428
%%%mzn-stat: solveTime=0.558757423
%%%mzn-stat: variables=848
%%%mzn-stat: propagators=596
%%%mzn-stat: failures=4104
%%%mzn-stat: propagations=103121
%%%mzn-stat: nogoods=4104
%%%mzn-stat: numAtomicConstraintsPropagated=0
%%%mzn-stat: allDifferentNumber1TotalHallSetSize=48776
%%%mzn-stat: allDifferentNumber1NumberOfConflicts=3436
%%%mzn-stat: allDifferentNumber1MaxHallSetSize=49
%%%mzn-stat: allDifferentNumber1PropagationsTotal=18023
%%%mzn-stat: allDifferentNumber1PropagationsThatFoundConflict=3436
%%%mzn-stat: circuitNumber2PropagationsThatFoundConflict=54
%%%mzn-stat: circuitNumber2TotalFixedEdgesAtConflict=2375
%%%mzn-stat: circuitNumber2NumberOfConflicts=54
%%%mzn-stat: circuitNumber2PropagationsThatPruned=191
%%%mzn-stat: circuitNumber2PropagationsTotal=9666
%%%mzn-stat: AverageConflictSize=12.682017543859649
%%%mzn-stat: NumUnitNogoodsLearned=0
%%%mzn-stat: AverageLearnedNogoodLength=19.948586744639375
%%%mzn-stat: AverageBacktrackAmount=0
%%%mzn-stat: AverageLbd=15.217348927875245
%%%mzn-stat: 2AutonomousSearchNumBackupCalled=1136
%%%mzn-stat: 2AutonomousSearchNumPredicatesRemoved=0
%%%mzn-stat: 2AutonomousSearchNumCalls=1139
%%%mzn-stat: 2AutonomousSearchNumPredicatesAdded=3325
%%%mzn-stat: 2AutonomousSearchAverageSizeOfHeap=3.9394205443371377
%%%mzn-stat: 2AutonomousSearchNumAssignedPredicatesEncountered=4487
%%%mzn-stat-end
maxleg = 373;
succ = array1d(1..50,[2, 5, 15, 19, 14, 8, 13, 33, 10, 12, 22, 11, 18, 27, 6, 1, 7, 20, 29, 28, 24, 23, 25, 40, 31, 4, 35, 9, 34, 17, 32, 21, 36, 50, 41, 43, 16, 3, 46, 42, 39, 48, 26, 37, 47, 30, 44, 38, 45, 49]);
% time elapsed: 1.12 s
----------
%%%mzn-stat: initTime=0.006715802
%%%mzn-stat: objective=352
%%%mzn-stat: nodes=22895
%%%mzn-stat: restarts=0
%%%mzn-stat: peakDepth=428
%%%mzn-stat: solveTime=2.320794768
%%%mzn-stat: variables=848
%%%mzn-stat: propagators=596
%%%mzn-stat: failures=14911
%%%mzn-stat: propagations=370001
%%%mzn-stat: nogoods=14911
%%%mzn-stat: numAtomicConstraintsPropagated=0
%%%mzn-stat: allDifferentNumber1TotalHallSetSize=153331
%%%mzn-stat: allDifferentNumber1NumberOfConflicts=10445
%%%mzn-stat: allDifferentNumber1MaxHallSetSize=49
%%%mzn-stat: allDifferentNumber1PropagationsTotal=47987
%%%mzn-stat: allDifferentNumber1PropagationsThatFoundConflict=10445
%%%mzn-stat: circuitNumber2PropagationsThatFoundConflict=425
%%%mzn-stat: circuitNumber2TotalFixedEdgesAtConflict=17904
%%%mzn-stat: circuitNumber2NumberOfConflicts=425
%%%mzn-stat: circuitNumber2PropagationsThatPruned=2749
%%%mzn-stat: circuitNumber2PropagationsTotal=23651
%%%mzn-stat: AverageConflictSize=17.24243846824492
%%%mzn-stat: NumUnitNogoodsLearned=0
%%%mzn-stat: AverageLearnedNogoodLength=28.809067131647776
%%%mzn-stat: AverageBacktrackAmount=0
%%%mzn-stat: AverageLbd=19.64871571323184
%%%mzn-stat: 2AutonomousSearchNumBackupCalled=1499
%%%mzn-stat: 2AutonomousSearchNumPredicatesRemoved=0
%%%mzn-stat: 2AutonomousSearchNumCalls=1503
%%%mzn-stat: 2AutonomousSearchNumPredicatesAdded=4974
%%%mzn-stat: 2AutonomousSearchAverageSizeOfHeap=4.308715901530273
%%%mzn-stat: 2AutonomousSearchNumAssignedPredicatesEncountered=6476
%%%mzn-stat-end
maxleg = 352;
succ = array1d(1..50,[2, 5, 15, 19, 14, 8, 16, 33, 10, 12, 13, 11, 18, 27, 6, 1, 7, 20, 29, 28, 25, 23, 3, 40, 31, 4, 35, 26, 49, 39, 32, 22, 38, 43, 41, 45, 17, 42, 46, 9, 30, 48, 36, 37, 47, 21, 44, 24, 50, 34]);
% time elapsed: 2.89 s
----------
%%%mzn-stat: initTime=0.006715802
%%%mzn-stat: objective=342
%%%mzn-stat: nodes=32073
%%%mzn-stat: restarts=0
%%%mzn-stat: peakDepth=428
%%%mzn-stat: solveTime=3.740140771
%%%mzn-stat: variables=848
%%%mzn-stat: propagators=596
%%%mzn-stat: failures=23610
%%%mzn-stat: propagations=540085
%%%mzn-stat: nogoods=23610
%%%mzn-stat: numAtomicConstraintsPropagated=0
%%%mzn-stat: allDifferentNumber1TotalHallSetSize=263632
%%%mzn-stat: allDifferentNumber1NumberOfConflicts=17975
%%%mzn-stat: allDifferentNumber1MaxHallSetSize=49
%%%mzn-stat: allDifferentNumber1PropagationsTotal=71415
%%%mzn-stat: allDifferentNumber1PropagationsThatFoundConflict=17975
%%%mzn-stat: circuitNumber2PropagationsThatFoundConflict=510
%%%mzn-stat: circuitNumber2TotalFixedEdgesAtConflict=21336
%%%mzn-stat: circuitNumber2NumberOfConflicts=510
%%%mzn-stat: circuitNumber2PropagationsThatPruned=3839
%%%mzn-stat: circuitNumber2PropagationsTotal=31955
%%%mzn-stat: AverageConflictSize=18.0997458703939
%%%mzn-stat: NumUnitNogoodsLearned=0
%%%mzn-stat: AverageLearnedNogoodLength=29.788055908513343
%%%mzn-stat: AverageBacktrackAmount=0
%%%mzn-stat: AverageLbd=19.693053790766623
%%%mzn-stat: 2AutonomousSearchNumBackupCalled=1851
%%%mzn-stat: 2AutonomousSearchNumPredicatesRemoved=0
%%%mzn-stat: 2AutonomousSearchNumCalls=1856
%%%mzn-stat: 2AutonomousSearchNumPredicatesAdded=6478
%%%mzn-stat: 2AutonomousSearchAverageSizeOfHeap=4.575431034482759
%%%mzn-stat: 2AutonomousSearchNumAssignedPredicatesEncountered=8492
%%%mzn-stat-end
maxleg = 342;
succ = array1d(1..50,[2, 5, 15, 19, 14, 8, 17, 33, 10, 12, 13, 11, 18, 27, 6, 1, 16, 20, 29, 28, 25, 23, 3, 40, 31, 4, 35, 26, 49, 39, 32, 22, 38, 43, 41, 45, 7, 42, 46, 9, 30, 48, 36, 37, 47, 21, 44, 24, 50, 34]);
% time elapsed: 4.31 s
----------
%%%mzn-stat: initTime=0.006715802
%%%mzn-stat: objective=334
%%%mzn-stat: nodes=35647
%%%mzn-stat: restarts=0
%%%mzn-stat: peakDepth=428
%%%mzn-stat: solveTime=4.190393958
%%%mzn-stat: variables=848
%%%mzn-stat: propagators=596
%%%mzn-stat: failures=26385
%%%mzn-stat: propagations=623336
%%%mzn-stat: nogoods=26385
%%%mzn-stat: numAtomicConstraintsPropagated=0
%%%mzn-stat: allDifferentNumber1TotalHallSetSize=279064
%%%mzn-stat: allDifferentNumber1NumberOfConflicts=19310
%%%mzn-stat: allDifferentNumber1MaxHallSetSize=49
%%%mzn-stat: allDifferentNumber1PropagationsTotal=79780
%%%mzn-stat: allDifferentNumber1PropagationsThatFoundConflict=19310
%%%mzn-stat: circuitNumber2PropagationsThatFoundConflict=837
%%%mzn-stat: circuitNumber2TotalFixedEdgesAtConflict=35485
%%%mzn-stat: circuitNumber2NumberOfConflicts=837
%%%mzn-stat: circuitNumber2PropagationsThatPruned=4856
%%%mzn-stat: circuitNumber2PropagationsTotal=36461
%%%mzn-stat: AverageConflictSize=17.858442296759524
%%%mzn-stat: NumUnitNogoodsLearned=0
%%%mzn-stat: AverageLearnedNogoodLength=29.629979154822816
%%%mzn-stat: AverageBacktrackAmount=0
%%%mzn-stat: AverageLbd=19.63793822247489
%%%mzn-stat: 2AutonomousSearchNumBackupCalled=2206
%%%mzn-stat: 2AutonomousSearchNumPredicatesRemoved=0
%%%mzn-stat: 2AutonomousSearchNumCalls=2212
%%%mzn-stat: 2AutonomousSearchNumPredicatesAdded=7989
%%%mzn-stat: 2AutonomousSearchAverageSizeOfHeap=4.782097649186257
%%%mzn-stat: 2AutonomousSearchNumAssignedPredicatesEncountered=10578
%%%mzn-stat-end
maxleg = 334;
succ = array1d(1..50,[2, 5, 15, 19, 14, 8, 17, 33, 10, 12, 22, 11, 18, 27, 6, 1, 16, 20, 29, 28, 13, 31, 3, 21, 23, 4, 35, 26, 49, 46, 32, 25, 38, 43, 41, 45, 7, 40, 9, 42, 30, 48, 36, 37, 47, 39, 44, 24, 50, 34]);
% time elapsed: 4.76 s
----------
%%%mzn-stat: initTime=0.006715802
%%%mzn-stat: objective=330
%%%mzn-stat: nodes=41457
%%%mzn-stat: restarts=0
%%%mzn-stat: peakDepth=428
%%%mzn-stat: solveTime=5.017038489
%%%mzn-stat: variables=848
%%%mzn-stat: propagators=596
%%%mzn-stat: failures=31529
%%%mzn-stat: propagations=722316
%%%mzn-stat: nogoods=31529
%%%mzn-stat: numAtomicConstraintsPropagated=0
%%%mzn-stat: allDifferentNumber1TotalHallSetSize=330021
%%%mzn-stat: allDifferentNumber1NumberOfConflicts=22872
%%%mzn-stat: allDifferentNumber1MaxHallSetSize=49
%%%mzn-stat: allDifferentNumber1PropagationsTotal=92542
%%%mzn-stat: allDifferentNumber1PropagationsThatFoundConflict=22872
%%%mzn-stat: circuitNumber2PropagationsThatFoundConflict=869
%%%mzn-stat: circuitNumber2TotalFixedEdgesAtConflict=36779
%%%mzn-stat: circuitNumber2NumberOfConflicts=869
%%%mzn-stat: circuitNumber2PropagationsThatPruned=5707
%%%mzn-stat: circuitNumber2PropagationsTotal=41104
%%%mzn-stat: AverageConflictSize=18.0528402423166
%%%mzn-stat: NumUnitNogoodsLearned=0
%%%mzn-stat: AverageLearnedNogoodLength=29.602175774683623
%%%mzn-stat: AverageBacktrackAmount=0
%%%mzn-stat: AverageLbd=19.114497763963335
%%%mzn-stat: 2AutonomousSearchNumBackupCalled=2580
%%%mzn-stat: 2AutonomousSearchNumPredicatesRemoved=0
%%%mzn-stat: 2AutonomousSearchNumCalls=2587
%%%mzn-stat: 2AutonomousSearchNumPredicatesAdded=9501
%%%mzn-stat: 2AutonomousSearchAverageSizeOfHeap=4.908001546192501
%%%mzn-stat: 2AutonomousSearchNumAssignedPredicatesEncountered=12697
%%%mzn-stat-end
maxleg = 330;
succ = array1d(1..50,[2, 5, 15, 19, 14, 8, 17, 33, 10, 12, 22, 11, 18, 27, 6, 1, 37, 7, 29, 28, 13, 31, 3, 21, 23, 4, 44, 9, 34, 20, 32, 25, 38, 49, 41, 26, 16, 40, 46, 42, 39, 48, 36, 47, 43, 30, 45, 24, 50, 35]);
% time elapsed: 5.59 s
----------
%%%mzn-stat: initTime=0.006715802
%%%mzn-stat: objective=325
%%%mzn-stat: nodes=44257
%%%mzn-stat: restarts=0
%%%mzn-stat: peakDepth=428
%%%mzn-stat: solveTime=5.423600867
%%%mzn-stat: variables=848
%%%mzn-stat: propagators=596
%%%mzn-stat: failures=33789
%%%mzn-stat: propagations=788494
%%%mzn-stat: nogoods=33789
%%%mzn-stat: numAtomicConstraintsPropagated=0
%%%mzn-stat: allDifferentNumber1TotalHallSetSize=349313
%%%mzn-stat: allDifferentNumber1NumberOfConflicts=24566
%%%mzn-stat: allDifferentNumber1MaxHallSetSize=49
%%%mzn-stat: allDifferentNumber1PropagationsTotal=98905
%%%mzn-stat: allDifferentNumber1PropagationsThatFoundConflict=24566
%%%mzn-stat: circuitNumber2PropagationsThatFoundConflict=893
%%%mzn-stat: circuitNumber2TotalFixedEdgesAtConflict=37677
%%%mzn-stat: circuitNumber2NumberOfConflicts=893
%%%mzn-stat: circuitNumber2PropagationsThatPruned=5950
%%%mzn-stat: circuitNumber2PropagationsTotal=43590
%%%mzn-stat: AverageConflictSize=17.970434164964928
%%%mzn-stat: NumUnitNogoodsLearned=0
%%%mzn-stat: AverageLearnedNogoodLength=29.797804019059456
%%%mzn-stat: AverageBacktrackAmount=0
%%%mzn-stat: AverageLbd=18.91719198555743
%%%mzn-stat: 2AutonomousSearchNumBackupCalled=2928
%%%mzn-stat: 2AutonomousSearchNumPredicatesRemoved=0
%%%mzn-stat: 2AutonomousSearchNumCalls=2936
%%%mzn-stat: 2AutonomousSearchNumPredicatesAdded=10815
%%%mzn-stat: 2AutonomousSearchAverageSizeOfHeap=5.048705722070845
%%%mzn-stat: 2AutonomousSearchNumAssignedPredicatesEncountered=14823
%%%mzn-stat-end
maxleg = 325;
succ = array1d(1..50,[2, 5, 15, 19, 14, 8, 17, 33, 10, 12, 22, 11, 18, 27, 6, 1, 37, 7, 34, 28, 13, 31, 3, 21, 23, 4, 44, 9, 49, 20, 32, 25, 38, 29, 41, 26, 16, 40, 46, 42, 39, 48, 36, 47, 43, 30, 45, 24, 50, 35]);
% time elapsed: 6.00 s
----------
%%%mzn-stat: initTime=0.006715802
%%%mzn-stat: objective=320
%%%mzn-stat: nodes=47718
%%%mzn-stat: restarts=0
%%%mzn-stat: peakDepth=428
%%%mzn-stat: solveTime=5.958178082
%%%mzn-stat: variables=848
%%%mzn-stat: propagators=596
%%%mzn-stat: failures=36363
%%%mzn-stat: propagations=864469
%%%mzn-stat: nogoods=36363
%%%mzn-stat: numAtomicConstraintsPropagated=0
%%%mzn-stat: allDifferentNumber1TotalHallSetSize=363136
%%%mzn-stat: allDifferentNumber1NumberOfConflicts=25975
%%%mzn-stat: allDifferentNumber1MaxHallSetSize=49
%%%mzn-stat: allDifferentNumber1PropagationsTotal=106399
%%%mzn-stat: allDifferentNumber1PropagationsThatFoundConflict=25975
%%%mzn-stat: circuitNumber2PropagationsThatFoundConflict=1476
%%%mzn-stat: circuitNumber2TotalFixedEdgesAtConflict=63929
%%%mzn-stat: circuitNumber2NumberOfConflicts=1476
%%%mzn-stat: circuitNumber2PropagationsThatPruned=6382
%%%mzn-stat: circuitNumber2PropagationsTotal=47210
%%%mzn-stat: AverageConflictSize=18.39232186563265
%%%mzn-stat: NumUnitNogoodsLearned=0
%%%mzn-stat: AverageLearnedNogoodLength=30.513378984132224
%%%mzn-stat: AverageBacktrackAmount=0
%%%mzn-stat: AverageLbd=18.927123724665183
%%%mzn-stat: 2AutonomousSearchNumBackupCalled=3283
%%%mzn-stat: 2AutonomousSearchNumPredicatesRemoved=0
%%%mzn-stat: 2AutonomousSearchNumCalls=3292
%%%mzn-stat: 2AutonomousSearchNumPredicatesAdded=12454
%%%mzn-stat: 2AutonomousSearchAverageSizeOfHeap=5.191069258809234
%%%mzn-stat: 2AutonomousSearchNumAssignedPredicatesEncountered=17089
%%%mzn-stat-end
maxleg = 320;
succ = array1d(1..50,[2, 5, 15, 19, 14, 8, 17, 33, 10, 12, 22, 11, 18, 27, 6, 44, 37, 7, 34, 28, 13, 31, 3, 21, 23, 36, 35, 26, 4, 20, 32, 25, 38, 43, 49, 9, 16, 40, 46, 42, 39, 48, 45, 1, 47, 30, 41, 24, 50, 29]);
% time elapsed: 6.53 s
----------
%%%mzn-stat: initTime=0.006715802
%%%mzn-stat: objective=292
%%%mzn-stat: nodes=48429
%%%mzn-stat: restarts=0
%%%mzn-stat: peakDepth=428
%%%mzn-stat: solveTime=5.9882922149999995
%%%mzn-stat: variables=848
%%%mzn-stat: propagators=596
%%%mzn-stat: failures=36490
%%%mzn-stat: propagations=869991
%%%mzn-stat: nogoods=36490
%%%mzn-stat: numAtomicConstraintsPropagated=0
%%%mzn-stat: allDifferentNumber1TotalHallSetSize=366600
%%%mzn-stat: allDifferentNumber1NumberOfConflicts=26098
%%%mzn-stat: allDifferentNumber1MaxHallSetSize=49
%%%mzn-stat: allDifferentNumber1PropagationsTotal=107082
%%%mzn-stat: allDifferentNumber1PropagationsThatFoundConflict=26098
%%%mzn-stat: circuitNumber2PropagationsThatFoundConflict=1479
%%%mzn-stat: circuitNumber2TotalFixedEdgesAtConflict=64002
%%%mzn-stat: circuitNumber2NumberOfConflicts=1479
%%%mzn-stat: circuitNumber2PropagationsThatPruned=6430
%%%mzn-stat: circuitNumber2PropagationsTotal=47579
%%%mzn-stat: AverageConflictSize=18.472156755275417
%%%mzn-stat: NumUnitNogoodsLearned=0
%%%mzn-stat: AverageLearnedNogoodLength=30.55892025212387
%%%mzn-stat: AverageBacktrackAmount=0
%%%mzn-stat: AverageLbd=18.90474102493834
%%%mzn-stat: 2AutonomousSearchNumBackupCalled=3608
%%%mzn-stat: 2AutonomousSearchNumPredicatesRemoved=0
%%%mzn-stat: 2AutonomousSearchNumCalls=3618
%%%mzn-stat: 2AutonomousSearchNumPredicatesAdded=13247
%%%mzn-stat: 2AutonomousSearchAverageSizeOfHeap=5.443338861249309
%%%mzn-stat: 2AutonomousSearchNumAssignedPredicatesEncountered=19694
%%%mzn-stat-end
maxleg = 292;
succ = array1d(1..50,[2, 5, 15, 19, 14, 8, 17, 33, 10, 12, 22, 11, 21, 27, 6, 37, 18, 13, 34, 1, 24, 31, 3, 40, 23, 4, 44, 20, 49, 28, 32, 25, 36, 29, 41, 43, 7, 42, 46, 48, 45, 9, 26, 16, 47, 30, 39, 38, 50, 35]);
% time elapsed: 6.57 s
----------
=====ERROR=====
% time elapsed: 1635.11 s
